(declare-fun c () String)
(declare-fun g () String)
(declare-fun b () String)
(declare-fun d () String)
(declare-fun f () String)
(declare-fun a () String)
(assert (= (str.++ d "h" g) (str.++ "fd" c "b" b)))
(assert (= (str.++ "g" d) (str.++ "ge" a "g" g c)))
(assert (= (str.++ "cfg" f "ah") "bf"))

(check-sat)
